
Gurobi 11.0.1 (win64) logging started Wed May 15 12:31:17 2024

Set parameter LogFile to value "output/solver_log22.txt"
Gurobi Optimizer version 11.0.1 build v11.0.1rc0 (win64 - Windows 11.0 (22631.2))

CPU model: 11th Gen Intel(R) Core(TM) i7-1165G7 @ 2.80GHz, instruction set [SSE2|AVX|AVX2|AVX512]
Thread count: 4 physical cores, 8 logical processors, using up to 8 threads

Optimize a model with 2184 rows, 410 columns and 40229 nonzeros
Model fingerprint: 0x1db14c08
Variable types: 248 continuous, 162 integer (162 binary)
Coefficient statistics:
  Matrix range     [4e-01, 1e+05]
  Objective range  [1e+00, 1e+02]
  Bounds range     [1e+00, 1e+00]
  RHS range        [1e-02, 1e+05]

User MIP start produced solution with objective 76437.2 (0.00s)
User MIP start produced solution with objective 76437.2 (0.00s)
Loaded user MIP start with objective 76437.2

Presolve removed 108 rows and 107 columns
Presolve time: 0.04s
Presolved: 2076 rows, 303 columns, 39647 nonzeros
Variable types: 228 continuous, 75 integer (75 binary)

Root relaxation: objective 7.650690e+04, 622 iterations, 0.04 seconds (0.09 work units)

    Nodes    |    Current Node    |     Objective Bounds      |     Work
 Expl Unexpl |  Obj  Depth IntInf | Incumbent    BestBd   Gap | It/Node Time

     0     0 76506.9031    0    1 76437.1601 76506.9031  0.09%     -    0s
H    0     0                    76506.903053 76506.9031  0.00%     -    0s
     0     0 76506.9031    0    1 76506.9031 76506.9031  0.00%     -    0s

Explored 1 nodes (622 simplex iterations) in 0.16 seconds (0.27 work units)
Thread count was 8 (of 8 available processors)

Solution count 3: 76506.9 76506.9 76437.2 

Optimal solution found (tolerance 1.00e-04)
Best objective 7.650690305313e+04, best bound 7.650690305313e+04, gap 0.0000%
